(set-logic QF_LRA)
(declare-fun T1 () Real )
(declare-fun T2 () Real )
(declare-fun T3 () Real )
(declare-fun T4 () Real )
(declare-fun T5 () Real )
(declare-fun T6 () Real )
(declare-fun T7 () Real )
(declare-fun T8 () Real )
(declare-fun T9 () Real )
(declare-fun T10 () Real )
(declare-fun Z () Real )
(assert ( and 
(or ( <= ( + T1 83 ) T2 ) ( <= ( + T2 27 ) T1 ) )
(or ( <= ( + T1 135 )  ( + T2 27 ) ) ( <= ( + T2 66 )( + T1 83 ) ) )
(or ( <= ( + T1 231 )  ( + T2 66 ) ) ( <= ( + T2 124 )( + T1 135 ) ) )
(or ( <= ( + T1 246 )  ( + T2 124 ) ) ( <= ( + T2 204 )( + T1 231 ) ) )
(or ( <= ( + T1 304 )  ( + T2 204 ) ) ( <= ( + T2 214 )( + T1 246 ) ) )
(or ( <= ( + T1 325 )  ( + T2 214 ) ) ( <= ( + T2 308 )( + T1 304 ) ) )
(or ( <= ( + T1 393 )  ( + T2 308 ) ) ( <= ( + T2 348 )( + T1 325 ) ) )
(or ( <= ( + T1 466 )  ( + T2 348 ) ) ( <= ( + T2 370 )( + T1 393 ) ) )
(or ( <= ( + T1 521 )  ( + T2 370 ) ) ( <= ( + T2 389 )( + T1 466 ) ) )
(or ( <= ( + T1 538 )  ( + T2 389 ) ) ( <= ( + T2 420 )( + T1 521 ) ) )
(or ( <= ( + T1 605 )  ( + T2 420 ) ) ( <= ( + T2 441 )( + T1 538 ) ) )
(or ( <= ( + T1 666 )  ( + T2 441 ) ) ( <= ( + T2 527 )( + T1 605 ) ) )
(or ( <= ( + T1 83 ) T3 ) ( <= ( + T3 1 ) T1 ) )
(or ( <= ( + T1 135 )  ( + T3 1 ) ) ( <= ( + T3 76 )( + T1 83 ) ) )
(or ( <= ( + T1 231 )  ( + T3 76 ) ) ( <= ( + T3 126 )( + T1 135 ) ) )
(or ( <= ( + T1 246 )  ( + T3 126 ) ) ( <= ( + T3 165 )( + T1 231 ) ) )
(or ( <= ( + T1 304 )  ( + T3 165 ) ) ( <= ( + T3 199 )( + T1 246 ) ) )
(or ( <= ( + T1 325 )  ( + T3 199 ) ) ( <= ( + T3 287 )( + T1 304 ) ) )
(or ( <= ( + T1 393 )  ( + T3 287 ) ) ( <= ( + T3 360 )( + T1 325 ) ) )
(or ( <= ( + T1 466 )  ( + T3 360 ) ) ( <= ( + T3 428 )( + T1 393 ) ) )
(or ( <= ( + T1 521 )  ( + T3 428 ) ) ( <= ( + T3 520 )( + T1 466 ) ) )
(or ( <= ( + T1 538 )  ( + T3 520 ) ) ( <= ( + T3 541 )( + T1 521 ) ) )
(or ( <= ( + T1 605 )  ( + T3 541 ) ) ( <= ( + T3 623 )( + T1 538 ) ) )
(or ( <= ( + T1 666 )  ( + T3 623 ) ) ( <= ( + T3 672 )( + T1 605 ) ) )
(or ( <= ( + T1 83 ) T4 ) ( <= ( + T4 41 ) T1 ) )
(or ( <= ( + T1 135 )  ( + T4 41 ) ) ( <= ( + T4 42 )( + T1 83 ) ) )
(or ( <= ( + T1 231 )  ( + T4 42 ) ) ( <= ( + T4 115 )( + T1 135 ) ) )
(or ( <= ( + T1 246 )  ( + T4 115 ) ) ( <= ( + T4 210 )( + T1 231 ) ) )
(or ( <= ( + T1 304 )  ( + T4 210 ) ) ( <= ( + T4 279 )( + T1 246 ) ) )
(or ( <= ( + T1 325 )  ( + T4 279 ) ) ( <= ( + T4 318 )( + T1 304 ) ) )
(or ( <= ( + T1 393 )  ( + T4 318 ) ) ( <= ( + T4 373 )( + T1 325 ) ) )
(or ( <= ( + T1 466 )  ( + T4 373 ) ) ( <= ( + T4 421 )( + T1 393 ) ) )
(or ( <= ( + T1 521 )  ( + T4 421 ) ) ( <= ( + T4 450 )( + T1 466 ) ) )
(or ( <= ( + T1 538 )  ( + T4 450 ) ) ( <= ( + T4 462 )( + T1 521 ) ) )
(or ( <= ( + T1 605 )  ( + T4 462 ) ) ( <= ( + T4 541 )( + T1 538 ) ) )
(or ( <= ( + T1 666 )  ( + T4 541 ) ) ( <= ( + T4 631 )( + T1 605 ) ) )
(or ( <= ( + T1 83 ) T5 ) ( <= ( + T5 58 ) T1 ) )
(or ( <= ( + T1 135 )  ( + T5 58 ) ) ( <= ( + T5 128 )( + T1 83 ) ) )
(or ( <= ( + T1 231 )  ( + T5 128 ) ) ( <= ( + T5 139 )( + T1 135 ) ) )
(or ( <= ( + T1 246 )  ( + T5 139 ) ) ( <= ( + T5 167 )( + T1 231 ) ) )
(or ( <= ( + T1 304 )  ( + T5 167 ) ) ( <= ( + T5 168 )( + T1 246 ) ) )
(or ( <= ( + T1 325 )  ( + T5 168 ) ) ( <= ( + T5 199 )( + T1 304 ) ) )
(or ( <= ( + T1 393 )  ( + T5 199 ) ) ( <= ( + T5 264 )( + T1 325 ) ) )
(or ( <= ( + T1 466 )  ( + T5 264 ) ) ( <= ( + T5 317 )( + T1 393 ) ) )
(or ( <= ( + T1 521 )  ( + T5 317 ) ) ( <= ( + T5 375 )( + T1 466 ) ) )
(or ( <= ( + T1 538 )  ( + T5 375 ) ) ( <= ( + T5 442 )( + T1 521 ) ) )
(or ( <= ( + T1 605 )  ( + T5 442 ) ) ( <= ( + T5 533 )( + T1 538 ) ) )
(or ( <= ( + T1 666 )  ( + T5 533 ) ) ( <= ( + T5 576 )( + T1 605 ) ) )
(or ( <= ( + T1 83 ) T6 ) ( <= ( + T6 6 ) T1 ) )
(or ( <= ( + T1 135 )  ( + T6 6 ) ) ( <= ( + T6 22 )( + T1 83 ) ) )
(or ( <= ( + T1 231 )  ( + T6 22 ) ) ( <= ( + T6 32 )( + T1 135 ) ) )
(or ( <= ( + T1 246 )  ( + T6 32 ) ) ( <= ( + T6 129 )( + T1 231 ) ) )
(or ( <= ( + T1 304 )  ( + T6 129 ) ) ( <= ( + T6 165 )( + T1 246 ) ) )
(or ( <= ( + T1 325 )  ( + T6 165 ) ) ( <= ( + T6 209 )( + T1 304 ) ) )
(or ( <= ( + T1 393 )  ( + T6 209 ) ) ( <= ( + T6 254 )( + T1 325 ) ) )
(or ( <= ( + T1 466 )  ( + T6 254 ) ) ( <= ( + T6 330 )( + T1 393 ) ) )
(or ( <= ( + T1 521 )  ( + T6 330 ) ) ( <= ( + T6 426 )( + T1 466 ) ) )
(or ( <= ( + T1 538 )  ( + T6 426 ) ) ( <= ( + T6 443 )( + T1 521 ) ) )
(or ( <= ( + T1 605 )  ( + T6 443 ) ) ( <= ( + T6 514 )( + T1 538 ) ) )
(or ( <= ( + T1 666 )  ( + T6 514 ) ) ( <= ( + T6 579 )( + T1 605 ) ) )
(or ( <= ( + T1 83 ) T7 ) ( <= ( + T7 7 ) T1 ) )
(or ( <= ( + T1 135 )  ( + T7 7 ) ) ( <= ( + T7 84 )( + T1 83 ) ) )
(or ( <= ( + T1 231 )  ( + T7 84 ) ) ( <= ( + T7 148 )( + T1 135 ) ) )
(or ( <= ( + T1 246 )  ( + T7 148 ) ) ( <= ( + T7 235 )( + T1 231 ) ) )
(or ( <= ( + T1 304 )  ( + T7 235 ) ) ( <= ( + T7 276 )( + T1 246 ) ) )
(or ( <= ( + T1 325 )  ( + T7 276 ) ) ( <= ( + T7 318 )( + T1 304 ) ) )
(or ( <= ( + T1 393 )  ( + T7 318 ) ) ( <= ( + T7 395 )( + T1 325 ) ) )
(or ( <= ( + T1 466 )  ( + T7 395 ) ) ( <= ( + T7 493 )( + T1 393 ) ) )
(or ( <= ( + T1 521 )  ( + T7 493 ) ) ( <= ( + T7 505 )( + T1 466 ) ) )
(or ( <= ( + T1 538 )  ( + T7 505 ) ) ( <= ( + T7 592 )( + T1 521 ) ) )
(or ( <= ( + T1 605 )  ( + T7 592 ) ) ( <= ( + T7 617 )( + T1 538 ) ) )
(or ( <= ( + T1 666 )  ( + T7 617 ) ) ( <= ( + T7 629 )( + T1 605 ) ) )
(or ( <= ( + T1 83 ) T8 ) ( <= ( + T8 70 ) T1 ) )
(or ( <= ( + T1 135 )  ( + T8 70 ) ) ( <= ( + T8 160 )( + T1 83 ) ) )
(or ( <= ( + T1 231 )  ( + T8 160 ) ) ( <= ( + T8 176 )( + T1 135 ) ) )
(or ( <= ( + T1 246 )  ( + T8 176 ) ) ( <= ( + T8 203 )( + T1 231 ) ) )
(or ( <= ( + T1 304 )  ( + T8 203 ) ) ( <= ( + T8 259 )( + T1 246 ) ) )
(or ( <= ( + T1 325 )  ( + T8 259 ) ) ( <= ( + T8 266 )( + T1 304 ) ) )
(or ( <= ( + T1 393 )  ( + T8 266 ) ) ( <= ( + T8 335 )( + T1 325 ) ) )
(or ( <= ( + T1 466 )  ( + T8 335 ) ) ( <= ( + T8 348 )( + T1 393 ) ) )
(or ( <= ( + T1 521 )  ( + T8 348 ) ) ( <= ( + T8 422 )( + T1 466 ) ) )
(or ( <= ( + T1 538 )  ( + T8 422 ) ) ( <= ( + T8 452 )( + T1 521 ) ) )
(or ( <= ( + T1 605 )  ( + T8 452 ) ) ( <= ( + T8 462 )( + T1 538 ) ) )
(or ( <= ( + T1 666 )  ( + T8 462 ) ) ( <= ( + T8 471 )( + T1 605 ) ) )
(or ( <= ( + T1 83 ) T9 ) ( <= ( + T9 73 ) T1 ) )
(or ( <= ( + T1 135 )  ( + T9 73 ) ) ( <= ( + T9 79 )( + T1 83 ) ) )
(or ( <= ( + T1 231 )  ( + T9 79 ) ) ( <= ( + T9 115 )( + T1 135 ) ) )
(or ( <= ( + T1 246 )  ( + T9 115 ) ) ( <= ( + T9 136 )( + T1 231 ) ) )
(or ( <= ( + T1 304 )  ( + T9 136 ) ) ( <= ( + T9 211 )( + T1 246 ) ) )
(or ( <= ( + T1 325 )  ( + T9 211 ) ) ( <= ( + T9 269 )( + T1 304 ) ) )
(or ( <= ( + T1 393 )  ( + T9 269 ) ) ( <= ( + T9 306 )( + T1 325 ) ) )
(or ( <= ( + T1 466 )  ( + T9 306 ) ) ( <= ( + T9 387 )( + T1 393 ) ) )
(or ( <= ( + T1 521 )  ( + T9 387 ) ) ( <= ( + T9 422 )( + T1 466 ) ) )
(or ( <= ( + T1 538 )  ( + T9 422 ) ) ( <= ( + T9 522 )( + T1 521 ) ) )
(or ( <= ( + T1 605 )  ( + T9 522 ) ) ( <= ( + T9 590 )( + T1 538 ) ) )
(or ( <= ( + T1 666 )  ( + T9 590 ) ) ( <= ( + T9 665 )( + T1 605 ) ) )
(or ( <= ( + T1 83 ) T10 ) ( <= ( + T10 41 ) T1 ) )
(or ( <= ( + T1 135 )  ( + T10 41 ) ) ( <= ( + T10 137 )( + T1 83 ) ) )
(or ( <= ( + T1 231 )  ( + T10 137 ) ) ( <= ( + T10 161 )( + T1 135 ) ) )
(or ( <= ( + T1 246 )  ( + T10 161 ) ) ( <= ( + T10 165 )( + T1 231 ) ) )
(or ( <= ( + T1 304 )  ( + T10 165 ) ) ( <= ( + T10 247 )( + T1 246 ) ) )
(or ( <= ( + T1 325 )  ( + T10 247 ) ) ( <= ( + T10 295 )( + T1 304 ) ) )
(or ( <= ( + T1 393 )  ( + T10 295 ) ) ( <= ( + T10 362 )( + T1 325 ) ) )
(or ( <= ( + T1 466 )  ( + T10 362 ) ) ( <= ( + T10 413 )( + T1 393 ) ) )
(or ( <= ( + T1 521 )  ( + T10 413 ) ) ( <= ( + T10 502 )( + T1 466 ) ) )
(or ( <= ( + T1 538 )  ( + T10 502 ) ) ( <= ( + T10 585 )( + T1 521 ) ) )
(or ( <= ( + T1 605 )  ( + T10 585 ) ) ( <= ( + T10 614 )( + T1 538 ) ) )
(or ( <= ( + T1 666 )  ( + T10 614 ) ) ( <= ( + T10 710 )( + T1 605 ) ) )
(or ( <= ( + T2 27 ) T3 ) ( <= ( + T3 1 ) T2 ) )
(or ( <= ( + T2 66 )  ( + T3 1 ) ) ( <= ( + T3 76 )( + T2 27 ) ) )
(or ( <= ( + T2 124 )  ( + T3 76 ) ) ( <= ( + T3 126 )( + T2 66 ) ) )
(or ( <= ( + T2 204 )  ( + T3 126 ) ) ( <= ( + T3 165 )( + T2 124 ) ) )
(or ( <= ( + T2 214 )  ( + T3 165 ) ) ( <= ( + T3 199 )( + T2 204 ) ) )
(or ( <= ( + T2 308 )  ( + T3 199 ) ) ( <= ( + T3 287 )( + T2 214 ) ) )
(or ( <= ( + T2 348 )  ( + T3 287 ) ) ( <= ( + T3 360 )( + T2 308 ) ) )
(or ( <= ( + T2 370 )  ( + T3 360 ) ) ( <= ( + T3 428 )( + T2 348 ) ) )
(or ( <= ( + T2 389 )  ( + T3 428 ) ) ( <= ( + T3 520 )( + T2 370 ) ) )
(or ( <= ( + T2 420 )  ( + T3 520 ) ) ( <= ( + T3 541 )( + T2 389 ) ) )
(or ( <= ( + T2 441 )  ( + T3 541 ) ) ( <= ( + T3 623 )( + T2 420 ) ) )
(or ( <= ( + T2 527 )  ( + T3 623 ) ) ( <= ( + T3 672 )( + T2 441 ) ) )
(or ( <= ( + T2 27 ) T4 ) ( <= ( + T4 41 ) T2 ) )
(or ( <= ( + T2 66 )  ( + T4 41 ) ) ( <= ( + T4 42 )( + T2 27 ) ) )
(or ( <= ( + T2 124 )  ( + T4 42 ) ) ( <= ( + T4 115 )( + T2 66 ) ) )
(or ( <= ( + T2 204 )  ( + T4 115 ) ) ( <= ( + T4 210 )( + T2 124 ) ) )
(or ( <= ( + T2 214 )  ( + T4 210 ) ) ( <= ( + T4 279 )( + T2 204 ) ) )
(or ( <= ( + T2 308 )  ( + T4 279 ) ) ( <= ( + T4 318 )( + T2 214 ) ) )
(or ( <= ( + T2 348 )  ( + T4 318 ) ) ( <= ( + T4 373 )( + T2 308 ) ) )
(or ( <= ( + T2 370 )  ( + T4 373 ) ) ( <= ( + T4 421 )( + T2 348 ) ) )
(or ( <= ( + T2 389 )  ( + T4 421 ) ) ( <= ( + T4 450 )( + T2 370 ) ) )
(or ( <= ( + T2 420 )  ( + T4 450 ) ) ( <= ( + T4 462 )( + T2 389 ) ) )
(or ( <= ( + T2 441 )  ( + T4 462 ) ) ( <= ( + T4 541 )( + T2 420 ) ) )
(or ( <= ( + T2 527 )  ( + T4 541 ) ) ( <= ( + T4 631 )( + T2 441 ) ) )
(or ( <= ( + T2 27 ) T5 ) ( <= ( + T5 58 ) T2 ) )
(or ( <= ( + T2 66 )  ( + T5 58 ) ) ( <= ( + T5 128 )( + T2 27 ) ) )
(or ( <= ( + T2 124 )  ( + T5 128 ) ) ( <= ( + T5 139 )( + T2 66 ) ) )
(or ( <= ( + T2 204 )  ( + T5 139 ) ) ( <= ( + T5 167 )( + T2 124 ) ) )
(or ( <= ( + T2 214 )  ( + T5 167 ) ) ( <= ( + T5 168 )( + T2 204 ) ) )
(or ( <= ( + T2 308 )  ( + T5 168 ) ) ( <= ( + T5 199 )( + T2 214 ) ) )
(or ( <= ( + T2 348 )  ( + T5 199 ) ) ( <= ( + T5 264 )( + T2 308 ) ) )
(or ( <= ( + T2 370 )  ( + T5 264 ) ) ( <= ( + T5 317 )( + T2 348 ) ) )
(or ( <= ( + T2 389 )  ( + T5 317 ) ) ( <= ( + T5 375 )( + T2 370 ) ) )
(or ( <= ( + T2 420 )  ( + T5 375 ) ) ( <= ( + T5 442 )( + T2 389 ) ) )
(or ( <= ( + T2 441 )  ( + T5 442 ) ) ( <= ( + T5 533 )( + T2 420 ) ) )
(or ( <= ( + T2 527 )  ( + T5 533 ) ) ( <= ( + T5 576 )( + T2 441 ) ) )
(or ( <= ( + T2 27 ) T6 ) ( <= ( + T6 6 ) T2 ) )
(or ( <= ( + T2 66 )  ( + T6 6 ) ) ( <= ( + T6 22 )( + T2 27 ) ) )
(or ( <= ( + T2 124 )  ( + T6 22 ) ) ( <= ( + T6 32 )( + T2 66 ) ) )
(or ( <= ( + T2 204 )  ( + T6 32 ) ) ( <= ( + T6 129 )( + T2 124 ) ) )
(or ( <= ( + T2 214 )  ( + T6 129 ) ) ( <= ( + T6 165 )( + T2 204 ) ) )
(or ( <= ( + T2 308 )  ( + T6 165 ) ) ( <= ( + T6 209 )( + T2 214 ) ) )
(or ( <= ( + T2 348 )  ( + T6 209 ) ) ( <= ( + T6 254 )( + T2 308 ) ) )
(or ( <= ( + T2 370 )  ( + T6 254 ) ) ( <= ( + T6 330 )( + T2 348 ) ) )
(or ( <= ( + T2 389 )  ( + T6 330 ) ) ( <= ( + T6 426 )( + T2 370 ) ) )
(or ( <= ( + T2 420 )  ( + T6 426 ) ) ( <= ( + T6 443 )( + T2 389 ) ) )
(or ( <= ( + T2 441 )  ( + T6 443 ) ) ( <= ( + T6 514 )( + T2 420 ) ) )
(or ( <= ( + T2 527 )  ( + T6 514 ) ) ( <= ( + T6 579 )( + T2 441 ) ) )
(or ( <= ( + T2 27 ) T7 ) ( <= ( + T7 7 ) T2 ) )
(or ( <= ( + T2 66 )  ( + T7 7 ) ) ( <= ( + T7 84 )( + T2 27 ) ) )
(or ( <= ( + T2 124 )  ( + T7 84 ) ) ( <= ( + T7 148 )( + T2 66 ) ) )
(or ( <= ( + T2 204 )  ( + T7 148 ) ) ( <= ( + T7 235 )( + T2 124 ) ) )
(or ( <= ( + T2 214 )  ( + T7 235 ) ) ( <= ( + T7 276 )( + T2 204 ) ) )
(or ( <= ( + T2 308 )  ( + T7 276 ) ) ( <= ( + T7 318 )( + T2 214 ) ) )
(or ( <= ( + T2 348 )  ( + T7 318 ) ) ( <= ( + T7 395 )( + T2 308 ) ) )
(or ( <= ( + T2 370 )  ( + T7 395 ) ) ( <= ( + T7 493 )( + T2 348 ) ) )
(or ( <= ( + T2 389 )  ( + T7 493 ) ) ( <= ( + T7 505 )( + T2 370 ) ) )
(or ( <= ( + T2 420 )  ( + T7 505 ) ) ( <= ( + T7 592 )( + T2 389 ) ) )
(or ( <= ( + T2 441 )  ( + T7 592 ) ) ( <= ( + T7 617 )( + T2 420 ) ) )
(or ( <= ( + T2 527 )  ( + T7 617 ) ) ( <= ( + T7 629 )( + T2 441 ) ) )
(or ( <= ( + T2 27 ) T8 ) ( <= ( + T8 70 ) T2 ) )
(or ( <= ( + T2 66 )  ( + T8 70 ) ) ( <= ( + T8 160 )( + T2 27 ) ) )
(or ( <= ( + T2 124 )  ( + T8 160 ) ) ( <= ( + T8 176 )( + T2 66 ) ) )
(or ( <= ( + T2 204 )  ( + T8 176 ) ) ( <= ( + T8 203 )( + T2 124 ) ) )
(or ( <= ( + T2 214 )  ( + T8 203 ) ) ( <= ( + T8 259 )( + T2 204 ) ) )
(or ( <= ( + T2 308 )  ( + T8 259 ) ) ( <= ( + T8 266 )( + T2 214 ) ) )
(or ( <= ( + T2 348 )  ( + T8 266 ) ) ( <= ( + T8 335 )( + T2 308 ) ) )
(or ( <= ( + T2 370 )  ( + T8 335 ) ) ( <= ( + T8 348 )( + T2 348 ) ) )
(or ( <= ( + T2 389 )  ( + T8 348 ) ) ( <= ( + T8 422 )( + T2 370 ) ) )
(or ( <= ( + T2 420 )  ( + T8 422 ) ) ( <= ( + T8 452 )( + T2 389 ) ) )
(or ( <= ( + T2 441 )  ( + T8 452 ) ) ( <= ( + T8 462 )( + T2 420 ) ) )
(or ( <= ( + T2 527 )  ( + T8 462 ) ) ( <= ( + T8 471 )( + T2 441 ) ) )
(or ( <= ( + T2 27 ) T9 ) ( <= ( + T9 73 ) T2 ) )
(or ( <= ( + T2 66 )  ( + T9 73 ) ) ( <= ( + T9 79 )( + T2 27 ) ) )
(or ( <= ( + T2 124 )  ( + T9 79 ) ) ( <= ( + T9 115 )( + T2 66 ) ) )
(or ( <= ( + T2 204 )  ( + T9 115 ) ) ( <= ( + T9 136 )( + T2 124 ) ) )
(or ( <= ( + T2 214 )  ( + T9 136 ) ) ( <= ( + T9 211 )( + T2 204 ) ) )
(or ( <= ( + T2 308 )  ( + T9 211 ) ) ( <= ( + T9 269 )( + T2 214 ) ) )
(or ( <= ( + T2 348 )  ( + T9 269 ) ) ( <= ( + T9 306 )( + T2 308 ) ) )
(or ( <= ( + T2 370 )  ( + T9 306 ) ) ( <= ( + T9 387 )( + T2 348 ) ) )
(or ( <= ( + T2 389 )  ( + T9 387 ) ) ( <= ( + T9 422 )( + T2 370 ) ) )
(or ( <= ( + T2 420 )  ( + T9 422 ) ) ( <= ( + T9 522 )( + T2 389 ) ) )
(or ( <= ( + T2 441 )  ( + T9 522 ) ) ( <= ( + T9 590 )( + T2 420 ) ) )
(or ( <= ( + T2 527 )  ( + T9 590 ) ) ( <= ( + T9 665 )( + T2 441 ) ) )
(or ( <= ( + T2 27 ) T10 ) ( <= ( + T10 41 ) T2 ) )
(or ( <= ( + T2 66 )  ( + T10 41 ) ) ( <= ( + T10 137 )( + T2 27 ) ) )
(or ( <= ( + T2 124 )  ( + T10 137 ) ) ( <= ( + T10 161 )( + T2 66 ) ) )
(or ( <= ( + T2 204 )  ( + T10 161 ) ) ( <= ( + T10 165 )( + T2 124 ) ) )
(or ( <= ( + T2 214 )  ( + T10 165 ) ) ( <= ( + T10 247 )( + T2 204 ) ) )
(or ( <= ( + T2 308 )  ( + T10 247 ) ) ( <= ( + T10 295 )( + T2 214 ) ) )
(or ( <= ( + T2 348 )  ( + T10 295 ) ) ( <= ( + T10 362 )( + T2 308 ) ) )
(or ( <= ( + T2 370 )  ( + T10 362 ) ) ( <= ( + T10 413 )( + T2 348 ) ) )
(or ( <= ( + T2 389 )  ( + T10 413 ) ) ( <= ( + T10 502 )( + T2 370 ) ) )
(or ( <= ( + T2 420 )  ( + T10 502 ) ) ( <= ( + T10 585 )( + T2 389 ) ) )
(or ( <= ( + T2 441 )  ( + T10 585 ) ) ( <= ( + T10 614 )( + T2 420 ) ) )
(or ( <= ( + T2 527 )  ( + T10 614 ) ) ( <= ( + T10 710 )( + T2 441 ) ) )
(or ( <= ( + T3 1 ) T4 ) ( <= ( + T4 41 ) T3 ) )
(or ( <= ( + T3 76 )  ( + T4 41 ) ) ( <= ( + T4 42 )( + T3 1 ) ) )
(or ( <= ( + T3 126 )  ( + T4 42 ) ) ( <= ( + T4 115 )( + T3 76 ) ) )
(or ( <= ( + T3 165 )  ( + T4 115 ) ) ( <= ( + T4 210 )( + T3 126 ) ) )
(or ( <= ( + T3 199 )  ( + T4 210 ) ) ( <= ( + T4 279 )( + T3 165 ) ) )
(or ( <= ( + T3 287 )  ( + T4 279 ) ) ( <= ( + T4 318 )( + T3 199 ) ) )
(or ( <= ( + T3 360 )  ( + T4 318 ) ) ( <= ( + T4 373 )( + T3 287 ) ) )
(or ( <= ( + T3 428 )  ( + T4 373 ) ) ( <= ( + T4 421 )( + T3 360 ) ) )
(or ( <= ( + T3 520 )  ( + T4 421 ) ) ( <= ( + T4 450 )( + T3 428 ) ) )
(or ( <= ( + T3 541 )  ( + T4 450 ) ) ( <= ( + T4 462 )( + T3 520 ) ) )
(or ( <= ( + T3 623 )  ( + T4 462 ) ) ( <= ( + T4 541 )( + T3 541 ) ) )
(or ( <= ( + T3 672 )  ( + T4 541 ) ) ( <= ( + T4 631 )( + T3 623 ) ) )
(or ( <= ( + T3 1 ) T5 ) ( <= ( + T5 58 ) T3 ) )
(or ( <= ( + T3 76 )  ( + T5 58 ) ) ( <= ( + T5 128 )( + T3 1 ) ) )
(or ( <= ( + T3 126 )  ( + T5 128 ) ) ( <= ( + T5 139 )( + T3 76 ) ) )
(or ( <= ( + T3 165 )  ( + T5 139 ) ) ( <= ( + T5 167 )( + T3 126 ) ) )
(or ( <= ( + T3 199 )  ( + T5 167 ) ) ( <= ( + T5 168 )( + T3 165 ) ) )
(or ( <= ( + T3 287 )  ( + T5 168 ) ) ( <= ( + T5 199 )( + T3 199 ) ) )
(or ( <= ( + T3 360 )  ( + T5 199 ) ) ( <= ( + T5 264 )( + T3 287 ) ) )
(or ( <= ( + T3 428 )  ( + T5 264 ) ) ( <= ( + T5 317 )( + T3 360 ) ) )
(or ( <= ( + T3 520 )  ( + T5 317 ) ) ( <= ( + T5 375 )( + T3 428 ) ) )
(or ( <= ( + T3 541 )  ( + T5 375 ) ) ( <= ( + T5 442 )( + T3 520 ) ) )
(or ( <= ( + T3 623 )  ( + T5 442 ) ) ( <= ( + T5 533 )( + T3 541 ) ) )
(or ( <= ( + T3 672 )  ( + T5 533 ) ) ( <= ( + T5 576 )( + T3 623 ) ) )
(or ( <= ( + T3 1 ) T6 ) ( <= ( + T6 6 ) T3 ) )
(or ( <= ( + T3 76 )  ( + T6 6 ) ) ( <= ( + T6 22 )( + T3 1 ) ) )
(or ( <= ( + T3 126 )  ( + T6 22 ) ) ( <= ( + T6 32 )( + T3 76 ) ) )
(or ( <= ( + T3 165 )  ( + T6 32 ) ) ( <= ( + T6 129 )( + T3 126 ) ) )
(or ( <= ( + T3 199 )  ( + T6 129 ) ) ( <= ( + T6 165 )( + T3 165 ) ) )
(or ( <= ( + T3 287 )  ( + T6 165 ) ) ( <= ( + T6 209 )( + T3 199 ) ) )
(or ( <= ( + T3 360 )  ( + T6 209 ) ) ( <= ( + T6 254 )( + T3 287 ) ) )
(or ( <= ( + T3 428 )  ( + T6 254 ) ) ( <= ( + T6 330 )( + T3 360 ) ) )
(or ( <= ( + T3 520 )  ( + T6 330 ) ) ( <= ( + T6 426 )( + T3 428 ) ) )
(or ( <= ( + T3 541 )  ( + T6 426 ) ) ( <= ( + T6 443 )( + T3 520 ) ) )
(or ( <= ( + T3 623 )  ( + T6 443 ) ) ( <= ( + T6 514 )( + T3 541 ) ) )
(or ( <= ( + T3 672 )  ( + T6 514 ) ) ( <= ( + T6 579 )( + T3 623 ) ) )
(or ( <= ( + T3 1 ) T7 ) ( <= ( + T7 7 ) T3 ) )
(or ( <= ( + T3 76 )  ( + T7 7 ) ) ( <= ( + T7 84 )( + T3 1 ) ) )
(or ( <= ( + T3 126 )  ( + T7 84 ) ) ( <= ( + T7 148 )( + T3 76 ) ) )
(or ( <= ( + T3 165 )  ( + T7 148 ) ) ( <= ( + T7 235 )( + T3 126 ) ) )
(or ( <= ( + T3 199 )  ( + T7 235 ) ) ( <= ( + T7 276 )( + T3 165 ) ) )
(or ( <= ( + T3 287 )  ( + T7 276 ) ) ( <= ( + T7 318 )( + T3 199 ) ) )
(or ( <= ( + T3 360 )  ( + T7 318 ) ) ( <= ( + T7 395 )( + T3 287 ) ) )
(or ( <= ( + T3 428 )  ( + T7 395 ) ) ( <= ( + T7 493 )( + T3 360 ) ) )
(or ( <= ( + T3 520 )  ( + T7 493 ) ) ( <= ( + T7 505 )( + T3 428 ) ) )
(or ( <= ( + T3 541 )  ( + T7 505 ) ) ( <= ( + T7 592 )( + T3 520 ) ) )
(or ( <= ( + T3 623 )  ( + T7 592 ) ) ( <= ( + T7 617 )( + T3 541 ) ) )
(or ( <= ( + T3 672 )  ( + T7 617 ) ) ( <= ( + T7 629 )( + T3 623 ) ) )
(or ( <= ( + T3 1 ) T8 ) ( <= ( + T8 70 ) T3 ) )
(or ( <= ( + T3 76 )  ( + T8 70 ) ) ( <= ( + T8 160 )( + T3 1 ) ) )
(or ( <= ( + T3 126 )  ( + T8 160 ) ) ( <= ( + T8 176 )( + T3 76 ) ) )
(or ( <= ( + T3 165 )  ( + T8 176 ) ) ( <= ( + T8 203 )( + T3 126 ) ) )
(or ( <= ( + T3 199 )  ( + T8 203 ) ) ( <= ( + T8 259 )( + T3 165 ) ) )
(or ( <= ( + T3 287 )  ( + T8 259 ) ) ( <= ( + T8 266 )( + T3 199 ) ) )
(or ( <= ( + T3 360 )  ( + T8 266 ) ) ( <= ( + T8 335 )( + T3 287 ) ) )
(or ( <= ( + T3 428 )  ( + T8 335 ) ) ( <= ( + T8 348 )( + T3 360 ) ) )
(or ( <= ( + T3 520 )  ( + T8 348 ) ) ( <= ( + T8 422 )( + T3 428 ) ) )
(or ( <= ( + T3 541 )  ( + T8 422 ) ) ( <= ( + T8 452 )( + T3 520 ) ) )
(or ( <= ( + T3 623 )  ( + T8 452 ) ) ( <= ( + T8 462 )( + T3 541 ) ) )
(or ( <= ( + T3 672 )  ( + T8 462 ) ) ( <= ( + T8 471 )( + T3 623 ) ) )
(or ( <= ( + T3 1 ) T9 ) ( <= ( + T9 73 ) T3 ) )
(or ( <= ( + T3 76 )  ( + T9 73 ) ) ( <= ( + T9 79 )( + T3 1 ) ) )
(or ( <= ( + T3 126 )  ( + T9 79 ) ) ( <= ( + T9 115 )( + T3 76 ) ) )
(or ( <= ( + T3 165 )  ( + T9 115 ) ) ( <= ( + T9 136 )( + T3 126 ) ) )
(or ( <= ( + T3 199 )  ( + T9 136 ) ) ( <= ( + T9 211 )( + T3 165 ) ) )
(or ( <= ( + T3 287 )  ( + T9 211 ) ) ( <= ( + T9 269 )( + T3 199 ) ) )
(or ( <= ( + T3 360 )  ( + T9 269 ) ) ( <= ( + T9 306 )( + T3 287 ) ) )
(or ( <= ( + T3 428 )  ( + T9 306 ) ) ( <= ( + T9 387 )( + T3 360 ) ) )
(or ( <= ( + T3 520 )  ( + T9 387 ) ) ( <= ( + T9 422 )( + T3 428 ) ) )
(or ( <= ( + T3 541 )  ( + T9 422 ) ) ( <= ( + T9 522 )( + T3 520 ) ) )
(or ( <= ( + T3 623 )  ( + T9 522 ) ) ( <= ( + T9 590 )( + T3 541 ) ) )
(or ( <= ( + T3 672 )  ( + T9 590 ) ) ( <= ( + T9 665 )( + T3 623 ) ) )
(or ( <= ( + T3 1 ) T10 ) ( <= ( + T10 41 ) T3 ) )
(or ( <= ( + T3 76 )  ( + T10 41 ) ) ( <= ( + T10 137 )( + T3 1 ) ) )
(or ( <= ( + T3 126 )  ( + T10 137 ) ) ( <= ( + T10 161 )( + T3 76 ) ) )
(or ( <= ( + T3 165 )  ( + T10 161 ) ) ( <= ( + T10 165 )( + T3 126 ) ) )
(or ( <= ( + T3 199 )  ( + T10 165 ) ) ( <= ( + T10 247 )( + T3 165 ) ) )
(or ( <= ( + T3 287 )  ( + T10 247 ) ) ( <= ( + T10 295 )( + T3 199 ) ) )
(or ( <= ( + T3 360 )  ( + T10 295 ) ) ( <= ( + T10 362 )( + T3 287 ) ) )
(or ( <= ( + T3 428 )  ( + T10 362 ) ) ( <= ( + T10 413 )( + T3 360 ) ) )
(or ( <= ( + T3 520 )  ( + T10 413 ) ) ( <= ( + T10 502 )( + T3 428 ) ) )
(or ( <= ( + T3 541 )  ( + T10 502 ) ) ( <= ( + T10 585 )( + T3 520 ) ) )
(or ( <= ( + T3 623 )  ( + T10 585 ) ) ( <= ( + T10 614 )( + T3 541 ) ) )
(or ( <= ( + T3 672 )  ( + T10 614 ) ) ( <= ( + T10 710 )( + T3 623 ) ) )
(or ( <= ( + T4 41 ) T5 ) ( <= ( + T5 58 ) T4 ) )
(or ( <= ( + T4 42 )  ( + T5 58 ) ) ( <= ( + T5 128 )( + T4 41 ) ) )
(or ( <= ( + T4 115 )  ( + T5 128 ) ) ( <= ( + T5 139 )( + T4 42 ) ) )
(or ( <= ( + T4 210 )  ( + T5 139 ) ) ( <= ( + T5 167 )( + T4 115 ) ) )
(or ( <= ( + T4 279 )  ( + T5 167 ) ) ( <= ( + T5 168 )( + T4 210 ) ) )
(or ( <= ( + T4 318 )  ( + T5 168 ) ) ( <= ( + T5 199 )( + T4 279 ) ) )
(or ( <= ( + T4 373 )  ( + T5 199 ) ) ( <= ( + T5 264 )( + T4 318 ) ) )
(or ( <= ( + T4 421 )  ( + T5 264 ) ) ( <= ( + T5 317 )( + T4 373 ) ) )
(or ( <= ( + T4 450 )  ( + T5 317 ) ) ( <= ( + T5 375 )( + T4 421 ) ) )
(or ( <= ( + T4 462 )  ( + T5 375 ) ) ( <= ( + T5 442 )( + T4 450 ) ) )
(or ( <= ( + T4 541 )  ( + T5 442 ) ) ( <= ( + T5 533 )( + T4 462 ) ) )
(or ( <= ( + T4 631 )  ( + T5 533 ) ) ( <= ( + T5 576 )( + T4 541 ) ) )
(or ( <= ( + T4 41 ) T6 ) ( <= ( + T6 6 ) T4 ) )
(or ( <= ( + T4 42 )  ( + T6 6 ) ) ( <= ( + T6 22 )( + T4 41 ) ) )
(or ( <= ( + T4 115 )  ( + T6 22 ) ) ( <= ( + T6 32 )( + T4 42 ) ) )
(or ( <= ( + T4 210 )  ( + T6 32 ) ) ( <= ( + T6 129 )( + T4 115 ) ) )
(or ( <= ( + T4 279 )  ( + T6 129 ) ) ( <= ( + T6 165 )( + T4 210 ) ) )
(or ( <= ( + T4 318 )  ( + T6 165 ) ) ( <= ( + T6 209 )( + T4 279 ) ) )
(or ( <= ( + T4 373 )  ( + T6 209 ) ) ( <= ( + T6 254 )( + T4 318 ) ) )
(or ( <= ( + T4 421 )  ( + T6 254 ) ) ( <= ( + T6 330 )( + T4 373 ) ) )
(or ( <= ( + T4 450 )  ( + T6 330 ) ) ( <= ( + T6 426 )( + T4 421 ) ) )
(or ( <= ( + T4 462 )  ( + T6 426 ) ) ( <= ( + T6 443 )( + T4 450 ) ) )
(or ( <= ( + T4 541 )  ( + T6 443 ) ) ( <= ( + T6 514 )( + T4 462 ) ) )
(or ( <= ( + T4 631 )  ( + T6 514 ) ) ( <= ( + T6 579 )( + T4 541 ) ) )
(or ( <= ( + T4 41 ) T7 ) ( <= ( + T7 7 ) T4 ) )
(or ( <= ( + T4 42 )  ( + T7 7 ) ) ( <= ( + T7 84 )( + T4 41 ) ) )
(or ( <= ( + T4 115 )  ( + T7 84 ) ) ( <= ( + T7 148 )( + T4 42 ) ) )
(or ( <= ( + T4 210 )  ( + T7 148 ) ) ( <= ( + T7 235 )( + T4 115 ) ) )
(or ( <= ( + T4 279 )  ( + T7 235 ) ) ( <= ( + T7 276 )( + T4 210 ) ) )
(or ( <= ( + T4 318 )  ( + T7 276 ) ) ( <= ( + T7 318 )( + T4 279 ) ) )
(or ( <= ( + T4 373 )  ( + T7 318 ) ) ( <= ( + T7 395 )( + T4 318 ) ) )
(or ( <= ( + T4 421 )  ( + T7 395 ) ) ( <= ( + T7 493 )( + T4 373 ) ) )
(or ( <= ( + T4 450 )  ( + T7 493 ) ) ( <= ( + T7 505 )( + T4 421 ) ) )
(or ( <= ( + T4 462 )  ( + T7 505 ) ) ( <= ( + T7 592 )( + T4 450 ) ) )
(or ( <= ( + T4 541 )  ( + T7 592 ) ) ( <= ( + T7 617 )( + T4 462 ) ) )
(or ( <= ( + T4 631 )  ( + T7 617 ) ) ( <= ( + T7 629 )( + T4 541 ) ) )
(or ( <= ( + T4 41 ) T8 ) ( <= ( + T8 70 ) T4 ) )
(or ( <= ( + T4 42 )  ( + T8 70 ) ) ( <= ( + T8 160 )( + T4 41 ) ) )
(or ( <= ( + T4 115 )  ( + T8 160 ) ) ( <= ( + T8 176 )( + T4 42 ) ) )
(or ( <= ( + T4 210 )  ( + T8 176 ) ) ( <= ( + T8 203 )( + T4 115 ) ) )
(or ( <= ( + T4 279 )  ( + T8 203 ) ) ( <= ( + T8 259 )( + T4 210 ) ) )
(or ( <= ( + T4 318 )  ( + T8 259 ) ) ( <= ( + T8 266 )( + T4 279 ) ) )
(or ( <= ( + T4 373 )  ( + T8 266 ) ) ( <= ( + T8 335 )( + T4 318 ) ) )
(or ( <= ( + T4 421 )  ( + T8 335 ) ) ( <= ( + T8 348 )( + T4 373 ) ) )
(or ( <= ( + T4 450 )  ( + T8 348 ) ) ( <= ( + T8 422 )( + T4 421 ) ) )
(or ( <= ( + T4 462 )  ( + T8 422 ) ) ( <= ( + T8 452 )( + T4 450 ) ) )
(or ( <= ( + T4 541 )  ( + T8 452 ) ) ( <= ( + T8 462 )( + T4 462 ) ) )
(or ( <= ( + T4 631 )  ( + T8 462 ) ) ( <= ( + T8 471 )( + T4 541 ) ) )
(or ( <= ( + T4 41 ) T9 ) ( <= ( + T9 73 ) T4 ) )
(or ( <= ( + T4 42 )  ( + T9 73 ) ) ( <= ( + T9 79 )( + T4 41 ) ) )
(or ( <= ( + T4 115 )  ( + T9 79 ) ) ( <= ( + T9 115 )( + T4 42 ) ) )
(or ( <= ( + T4 210 )  ( + T9 115 ) ) ( <= ( + T9 136 )( + T4 115 ) ) )
(or ( <= ( + T4 279 )  ( + T9 136 ) ) ( <= ( + T9 211 )( + T4 210 ) ) )
(or ( <= ( + T4 318 )  ( + T9 211 ) ) ( <= ( + T9 269 )( + T4 279 ) ) )
(or ( <= ( + T4 373 )  ( + T9 269 ) ) ( <= ( + T9 306 )( + T4 318 ) ) )
(or ( <= ( + T4 421 )  ( + T9 306 ) ) ( <= ( + T9 387 )( + T4 373 ) ) )
(or ( <= ( + T4 450 )  ( + T9 387 ) ) ( <= ( + T9 422 )( + T4 421 ) ) )
(or ( <= ( + T4 462 )  ( + T9 422 ) ) ( <= ( + T9 522 )( + T4 450 ) ) )
(or ( <= ( + T4 541 )  ( + T9 522 ) ) ( <= ( + T9 590 )( + T4 462 ) ) )
(or ( <= ( + T4 631 )  ( + T9 590 ) ) ( <= ( + T9 665 )( + T4 541 ) ) )
(or ( <= ( + T4 41 ) T10 ) ( <= ( + T10 41 ) T4 ) )
(or ( <= ( + T4 42 )  ( + T10 41 ) ) ( <= ( + T10 137 )( + T4 41 ) ) )
(or ( <= ( + T4 115 )  ( + T10 137 ) ) ( <= ( + T10 161 )( + T4 42 ) ) )
(or ( <= ( + T4 210 )  ( + T10 161 ) ) ( <= ( + T10 165 )( + T4 115 ) ) )
(or ( <= ( + T4 279 )  ( + T10 165 ) ) ( <= ( + T10 247 )( + T4 210 ) ) )
(or ( <= ( + T4 318 )  ( + T10 247 ) ) ( <= ( + T10 295 )( + T4 279 ) ) )
(or ( <= ( + T4 373 )  ( + T10 295 ) ) ( <= ( + T10 362 )( + T4 318 ) ) )
(or ( <= ( + T4 421 )  ( + T10 362 ) ) ( <= ( + T10 413 )( + T4 373 ) ) )
(or ( <= ( + T4 450 )  ( + T10 413 ) ) ( <= ( + T10 502 )( + T4 421 ) ) )
(or ( <= ( + T4 462 )  ( + T10 502 ) ) ( <= ( + T10 585 )( + T4 450 ) ) )
(or ( <= ( + T4 541 )  ( + T10 585 ) ) ( <= ( + T10 614 )( + T4 462 ) ) )
(or ( <= ( + T4 631 )  ( + T10 614 ) ) ( <= ( + T10 710 )( + T4 541 ) ) )
(or ( <= ( + T5 58 ) T6 ) ( <= ( + T6 6 ) T5 ) )
(or ( <= ( + T5 128 )  ( + T6 6 ) ) ( <= ( + T6 22 )( + T5 58 ) ) )
(or ( <= ( + T5 139 )  ( + T6 22 ) ) ( <= ( + T6 32 )( + T5 128 ) ) )
(or ( <= ( + T5 167 )  ( + T6 32 ) ) ( <= ( + T6 129 )( + T5 139 ) ) )
(or ( <= ( + T5 168 )  ( + T6 129 ) ) ( <= ( + T6 165 )( + T5 167 ) ) )
(or ( <= ( + T5 199 )  ( + T6 165 ) ) ( <= ( + T6 209 )( + T5 168 ) ) )
(or ( <= ( + T5 264 )  ( + T6 209 ) ) ( <= ( + T6 254 )( + T5 199 ) ) )
(or ( <= ( + T5 317 )  ( + T6 254 ) ) ( <= ( + T6 330 )( + T5 264 ) ) )
(or ( <= ( + T5 375 )  ( + T6 330 ) ) ( <= ( + T6 426 )( + T5 317 ) ) )
(or ( <= ( + T5 442 )  ( + T6 426 ) ) ( <= ( + T6 443 )( + T5 375 ) ) )
(or ( <= ( + T5 533 )  ( + T6 443 ) ) ( <= ( + T6 514 )( + T5 442 ) ) )
(or ( <= ( + T5 576 )  ( + T6 514 ) ) ( <= ( + T6 579 )( + T5 533 ) ) )
(or ( <= ( + T5 58 ) T7 ) ( <= ( + T7 7 ) T5 ) )
(or ( <= ( + T5 128 )  ( + T7 7 ) ) ( <= ( + T7 84 )( + T5 58 ) ) )
(or ( <= ( + T5 139 )  ( + T7 84 ) ) ( <= ( + T7 148 )( + T5 128 ) ) )
(or ( <= ( + T5 167 )  ( + T7 148 ) ) ( <= ( + T7 235 )( + T5 139 ) ) )
(or ( <= ( + T5 168 )  ( + T7 235 ) ) ( <= ( + T7 276 )( + T5 167 ) ) )
(or ( <= ( + T5 199 )  ( + T7 276 ) ) ( <= ( + T7 318 )( + T5 168 ) ) )
(or ( <= ( + T5 264 )  ( + T7 318 ) ) ( <= ( + T7 395 )( + T5 199 ) ) )
(or ( <= ( + T5 317 )  ( + T7 395 ) ) ( <= ( + T7 493 )( + T5 264 ) ) )
(or ( <= ( + T5 375 )  ( + T7 493 ) ) ( <= ( + T7 505 )( + T5 317 ) ) )
(or ( <= ( + T5 442 )  ( + T7 505 ) ) ( <= ( + T7 592 )( + T5 375 ) ) )
(or ( <= ( + T5 533 )  ( + T7 592 ) ) ( <= ( + T7 617 )( + T5 442 ) ) )
(or ( <= ( + T5 576 )  ( + T7 617 ) ) ( <= ( + T7 629 )( + T5 533 ) ) )
(or ( <= ( + T5 58 ) T8 ) ( <= ( + T8 70 ) T5 ) )
(or ( <= ( + T5 128 )  ( + T8 70 ) ) ( <= ( + T8 160 )( + T5 58 ) ) )
(or ( <= ( + T5 139 )  ( + T8 160 ) ) ( <= ( + T8 176 )( + T5 128 ) ) )
(or ( <= ( + T5 167 )  ( + T8 176 ) ) ( <= ( + T8 203 )( + T5 139 ) ) )
(or ( <= ( + T5 168 )  ( + T8 203 ) ) ( <= ( + T8 259 )( + T5 167 ) ) )
(or ( <= ( + T5 199 )  ( + T8 259 ) ) ( <= ( + T8 266 )( + T5 168 ) ) )
(or ( <= ( + T5 264 )  ( + T8 266 ) ) ( <= ( + T8 335 )( + T5 199 ) ) )
(or ( <= ( + T5 317 )  ( + T8 335 ) ) ( <= ( + T8 348 )( + T5 264 ) ) )
(or ( <= ( + T5 375 )  ( + T8 348 ) ) ( <= ( + T8 422 )( + T5 317 ) ) )
(or ( <= ( + T5 442 )  ( + T8 422 ) ) ( <= ( + T8 452 )( + T5 375 ) ) )
(or ( <= ( + T5 533 )  ( + T8 452 ) ) ( <= ( + T8 462 )( + T5 442 ) ) )
(or ( <= ( + T5 576 )  ( + T8 462 ) ) ( <= ( + T8 471 )( + T5 533 ) ) )
(or ( <= ( + T5 58 ) T9 ) ( <= ( + T9 73 ) T5 ) )
(or ( <= ( + T5 128 )  ( + T9 73 ) ) ( <= ( + T9 79 )( + T5 58 ) ) )
(or ( <= ( + T5 139 )  ( + T9 79 ) ) ( <= ( + T9 115 )( + T5 128 ) ) )
(or ( <= ( + T5 167 )  ( + T9 115 ) ) ( <= ( + T9 136 )( + T5 139 ) ) )
(or ( <= ( + T5 168 )  ( + T9 136 ) ) ( <= ( + T9 211 )( + T5 167 ) ) )
(or ( <= ( + T5 199 )  ( + T9 211 ) ) ( <= ( + T9 269 )( + T5 168 ) ) )
(or ( <= ( + T5 264 )  ( + T9 269 ) ) ( <= ( + T9 306 )( + T5 199 ) ) )
(or ( <= ( + T5 317 )  ( + T9 306 ) ) ( <= ( + T9 387 )( + T5 264 ) ) )
(or ( <= ( + T5 375 )  ( + T9 387 ) ) ( <= ( + T9 422 )( + T5 317 ) ) )
(or ( <= ( + T5 442 )  ( + T9 422 ) ) ( <= ( + T9 522 )( + T5 375 ) ) )
(or ( <= ( + T5 533 )  ( + T9 522 ) ) ( <= ( + T9 590 )( + T5 442 ) ) )
(or ( <= ( + T5 576 )  ( + T9 590 ) ) ( <= ( + T9 665 )( + T5 533 ) ) )
(or ( <= ( + T5 58 ) T10 ) ( <= ( + T10 41 ) T5 ) )
(or ( <= ( + T5 128 )  ( + T10 41 ) ) ( <= ( + T10 137 )( + T5 58 ) ) )
(or ( <= ( + T5 139 )  ( + T10 137 ) ) ( <= ( + T10 161 )( + T5 128 ) ) )
(or ( <= ( + T5 167 )  ( + T10 161 ) ) ( <= ( + T10 165 )( + T5 139 ) ) )
(or ( <= ( + T5 168 )  ( + T10 165 ) ) ( <= ( + T10 247 )( + T5 167 ) ) )
(or ( <= ( + T5 199 )  ( + T10 247 ) ) ( <= ( + T10 295 )( + T5 168 ) ) )
(or ( <= ( + T5 264 )  ( + T10 295 ) ) ( <= ( + T10 362 )( + T5 199 ) ) )
(or ( <= ( + T5 317 )  ( + T10 362 ) ) ( <= ( + T10 413 )( + T5 264 ) ) )
(or ( <= ( + T5 375 )  ( + T10 413 ) ) ( <= ( + T10 502 )( + T5 317 ) ) )
(or ( <= ( + T5 442 )  ( + T10 502 ) ) ( <= ( + T10 585 )( + T5 375 ) ) )
(or ( <= ( + T5 533 )  ( + T10 585 ) ) ( <= ( + T10 614 )( + T5 442 ) ) )
(or ( <= ( + T5 576 )  ( + T10 614 ) ) ( <= ( + T10 710 )( + T5 533 ) ) )
(or ( <= ( + T6 6 ) T7 ) ( <= ( + T7 7 ) T6 ) )
(or ( <= ( + T6 22 )  ( + T7 7 ) ) ( <= ( + T7 84 )( + T6 6 ) ) )
(or ( <= ( + T6 32 )  ( + T7 84 ) ) ( <= ( + T7 148 )( + T6 22 ) ) )
(or ( <= ( + T6 129 )  ( + T7 148 ) ) ( <= ( + T7 235 )( + T6 32 ) ) )
(or ( <= ( + T6 165 )  ( + T7 235 ) ) ( <= ( + T7 276 )( + T6 129 ) ) )
(or ( <= ( + T6 209 )  ( + T7 276 ) ) ( <= ( + T7 318 )( + T6 165 ) ) )
(or ( <= ( + T6 254 )  ( + T7 318 ) ) ( <= ( + T7 395 )( + T6 209 ) ) )
(or ( <= ( + T6 330 )  ( + T7 395 ) ) ( <= ( + T7 493 )( + T6 254 ) ) )
(or ( <= ( + T6 426 )  ( + T7 493 ) ) ( <= ( + T7 505 )( + T6 330 ) ) )
(or ( <= ( + T6 443 )  ( + T7 505 ) ) ( <= ( + T7 592 )( + T6 426 ) ) )
(or ( <= ( + T6 514 )  ( + T7 592 ) ) ( <= ( + T7 617 )( + T6 443 ) ) )
(or ( <= ( + T6 579 )  ( + T7 617 ) ) ( <= ( + T7 629 )( + T6 514 ) ) )
(or ( <= ( + T6 6 ) T8 ) ( <= ( + T8 70 ) T6 ) )
(or ( <= ( + T6 22 )  ( + T8 70 ) ) ( <= ( + T8 160 )( + T6 6 ) ) )
(or ( <= ( + T6 32 )  ( + T8 160 ) ) ( <= ( + T8 176 )( + T6 22 ) ) )
(or ( <= ( + T6 129 )  ( + T8 176 ) ) ( <= ( + T8 203 )( + T6 32 ) ) )
(or ( <= ( + T6 165 )  ( + T8 203 ) ) ( <= ( + T8 259 )( + T6 129 ) ) )
(or ( <= ( + T6 209 )  ( + T8 259 ) ) ( <= ( + T8 266 )( + T6 165 ) ) )
(or ( <= ( + T6 254 )  ( + T8 266 ) ) ( <= ( + T8 335 )( + T6 209 ) ) )
(or ( <= ( + T6 330 )  ( + T8 335 ) ) ( <= ( + T8 348 )( + T6 254 ) ) )
(or ( <= ( + T6 426 )  ( + T8 348 ) ) ( <= ( + T8 422 )( + T6 330 ) ) )
(or ( <= ( + T6 443 )  ( + T8 422 ) ) ( <= ( + T8 452 )( + T6 426 ) ) )
(or ( <= ( + T6 514 )  ( + T8 452 ) ) ( <= ( + T8 462 )( + T6 443 ) ) )
(or ( <= ( + T6 579 )  ( + T8 462 ) ) ( <= ( + T8 471 )( + T6 514 ) ) )
(or ( <= ( + T6 6 ) T9 ) ( <= ( + T9 73 ) T6 ) )
(or ( <= ( + T6 22 )  ( + T9 73 ) ) ( <= ( + T9 79 )( + T6 6 ) ) )
(or ( <= ( + T6 32 )  ( + T9 79 ) ) ( <= ( + T9 115 )( + T6 22 ) ) )
(or ( <= ( + T6 129 )  ( + T9 115 ) ) ( <= ( + T9 136 )( + T6 32 ) ) )
(or ( <= ( + T6 165 )  ( + T9 136 ) ) ( <= ( + T9 211 )( + T6 129 ) ) )
(or ( <= ( + T6 209 )  ( + T9 211 ) ) ( <= ( + T9 269 )( + T6 165 ) ) )
(or ( <= ( + T6 254 )  ( + T9 269 ) ) ( <= ( + T9 306 )( + T6 209 ) ) )
(or ( <= ( + T6 330 )  ( + T9 306 ) ) ( <= ( + T9 387 )( + T6 254 ) ) )
(or ( <= ( + T6 426 )  ( + T9 387 ) ) ( <= ( + T9 422 )( + T6 330 ) ) )
(or ( <= ( + T6 443 )  ( + T9 422 ) ) ( <= ( + T9 522 )( + T6 426 ) ) )
(or ( <= ( + T6 514 )  ( + T9 522 ) ) ( <= ( + T9 590 )( + T6 443 ) ) )
(or ( <= ( + T6 579 )  ( + T9 590 ) ) ( <= ( + T9 665 )( + T6 514 ) ) )
(or ( <= ( + T6 6 ) T10 ) ( <= ( + T10 41 ) T6 ) )
(or ( <= ( + T6 22 )  ( + T10 41 ) ) ( <= ( + T10 137 )( + T6 6 ) ) )
(or ( <= ( + T6 32 )  ( + T10 137 ) ) ( <= ( + T10 161 )( + T6 22 ) ) )
(or ( <= ( + T6 129 )  ( + T10 161 ) ) ( <= ( + T10 165 )( + T6 32 ) ) )
(or ( <= ( + T6 165 )  ( + T10 165 ) ) ( <= ( + T10 247 )( + T6 129 ) ) )
(or ( <= ( + T6 209 )  ( + T10 247 ) ) ( <= ( + T10 295 )( + T6 165 ) ) )
(or ( <= ( + T6 254 )  ( + T10 295 ) ) ( <= ( + T10 362 )( + T6 209 ) ) )
(or ( <= ( + T6 330 )  ( + T10 362 ) ) ( <= ( + T10 413 )( + T6 254 ) ) )
(or ( <= ( + T6 426 )  ( + T10 413 ) ) ( <= ( + T10 502 )( + T6 330 ) ) )
(or ( <= ( + T6 443 )  ( + T10 502 ) ) ( <= ( + T10 585 )( + T6 426 ) ) )
(or ( <= ( + T6 514 )  ( + T10 585 ) ) ( <= ( + T10 614 )( + T6 443 ) ) )
(or ( <= ( + T6 579 )  ( + T10 614 ) ) ( <= ( + T10 710 )( + T6 514 ) ) )
(or ( <= ( + T7 7 ) T8 ) ( <= ( + T8 70 ) T7 ) )
(or ( <= ( + T7 84 )  ( + T8 70 ) ) ( <= ( + T8 160 )( + T7 7 ) ) )
(or ( <= ( + T7 148 )  ( + T8 160 ) ) ( <= ( + T8 176 )( + T7 84 ) ) )
(or ( <= ( + T7 235 )  ( + T8 176 ) ) ( <= ( + T8 203 )( + T7 148 ) ) )
(or ( <= ( + T7 276 )  ( + T8 203 ) ) ( <= ( + T8 259 )( + T7 235 ) ) )
(or ( <= ( + T7 318 )  ( + T8 259 ) ) ( <= ( + T8 266 )( + T7 276 ) ) )
(or ( <= ( + T7 395 )  ( + T8 266 ) ) ( <= ( + T8 335 )( + T7 318 ) ) )
(or ( <= ( + T7 493 )  ( + T8 335 ) ) ( <= ( + T8 348 )( + T7 395 ) ) )
(or ( <= ( + T7 505 )  ( + T8 348 ) ) ( <= ( + T8 422 )( + T7 493 ) ) )
(or ( <= ( + T7 592 )  ( + T8 422 ) ) ( <= ( + T8 452 )( + T7 505 ) ) )
(or ( <= ( + T7 617 )  ( + T8 452 ) ) ( <= ( + T8 462 )( + T7 592 ) ) )
(or ( <= ( + T7 629 )  ( + T8 462 ) ) ( <= ( + T8 471 )( + T7 617 ) ) )
(or ( <= ( + T7 7 ) T9 ) ( <= ( + T9 73 ) T7 ) )
(or ( <= ( + T7 84 )  ( + T9 73 ) ) ( <= ( + T9 79 )( + T7 7 ) ) )
(or ( <= ( + T7 148 )  ( + T9 79 ) ) ( <= ( + T9 115 )( + T7 84 ) ) )
(or ( <= ( + T7 235 )  ( + T9 115 ) ) ( <= ( + T9 136 )( + T7 148 ) ) )
(or ( <= ( + T7 276 )  ( + T9 136 ) ) ( <= ( + T9 211 )( + T7 235 ) ) )
(or ( <= ( + T7 318 )  ( + T9 211 ) ) ( <= ( + T9 269 )( + T7 276 ) ) )
(or ( <= ( + T7 395 )  ( + T9 269 ) ) ( <= ( + T9 306 )( + T7 318 ) ) )
(or ( <= ( + T7 493 )  ( + T9 306 ) ) ( <= ( + T9 387 )( + T7 395 ) ) )
(or ( <= ( + T7 505 )  ( + T9 387 ) ) ( <= ( + T9 422 )( + T7 493 ) ) )
(or ( <= ( + T7 592 )  ( + T9 422 ) ) ( <= ( + T9 522 )( + T7 505 ) ) )
(or ( <= ( + T7 617 )  ( + T9 522 ) ) ( <= ( + T9 590 )( + T7 592 ) ) )
(or ( <= ( + T7 629 )  ( + T9 590 ) ) ( <= ( + T9 665 )( + T7 617 ) ) )
(or ( <= ( + T7 7 ) T10 ) ( <= ( + T10 41 ) T7 ) )
(or ( <= ( + T7 84 )  ( + T10 41 ) ) ( <= ( + T10 137 )( + T7 7 ) ) )
(or ( <= ( + T7 148 )  ( + T10 137 ) ) ( <= ( + T10 161 )( + T7 84 ) ) )
(or ( <= ( + T7 235 )  ( + T10 161 ) ) ( <= ( + T10 165 )( + T7 148 ) ) )
(or ( <= ( + T7 276 )  ( + T10 165 ) ) ( <= ( + T10 247 )( + T7 235 ) ) )
(or ( <= ( + T7 318 )  ( + T10 247 ) ) ( <= ( + T10 295 )( + T7 276 ) ) )
(or ( <= ( + T7 395 )  ( + T10 295 ) ) ( <= ( + T10 362 )( + T7 318 ) ) )
(or ( <= ( + T7 493 )  ( + T10 362 ) ) ( <= ( + T10 413 )( + T7 395 ) ) )
(or ( <= ( + T7 505 )  ( + T10 413 ) ) ( <= ( + T10 502 )( + T7 493 ) ) )
(or ( <= ( + T7 592 )  ( + T10 502 ) ) ( <= ( + T10 585 )( + T7 505 ) ) )
(or ( <= ( + T7 617 )  ( + T10 585 ) ) ( <= ( + T10 614 )( + T7 592 ) ) )
(or ( <= ( + T7 629 )  ( + T10 614 ) ) ( <= ( + T10 710 )( + T7 617 ) ) )
(or ( <= ( + T8 70 ) T9 ) ( <= ( + T9 73 ) T8 ) )
(or ( <= ( + T8 160 )  ( + T9 73 ) ) ( <= ( + T9 79 )( + T8 70 ) ) )
(or ( <= ( + T8 176 )  ( + T9 79 ) ) ( <= ( + T9 115 )( + T8 160 ) ) )
(or ( <= ( + T8 203 )  ( + T9 115 ) ) ( <= ( + T9 136 )( + T8 176 ) ) )
(or ( <= ( + T8 259 )  ( + T9 136 ) ) ( <= ( + T9 211 )( + T8 203 ) ) )
(or ( <= ( + T8 266 )  ( + T9 211 ) ) ( <= ( + T9 269 )( + T8 259 ) ) )
(or ( <= ( + T8 335 )  ( + T9 269 ) ) ( <= ( + T9 306 )( + T8 266 ) ) )
(or ( <= ( + T8 348 )  ( + T9 306 ) ) ( <= ( + T9 387 )( + T8 335 ) ) )
(or ( <= ( + T8 422 )  ( + T9 387 ) ) ( <= ( + T9 422 )( + T8 348 ) ) )
(or ( <= ( + T8 452 )  ( + T9 422 ) ) ( <= ( + T9 522 )( + T8 422 ) ) )
(or ( <= ( + T8 462 )  ( + T9 522 ) ) ( <= ( + T9 590 )( + T8 452 ) ) )
(or ( <= ( + T8 471 )  ( + T9 590 ) ) ( <= ( + T9 665 )( + T8 462 ) ) )
(or ( <= ( + T8 70 ) T10 ) ( <= ( + T10 41 ) T8 ) )
(or ( <= ( + T8 160 )  ( + T10 41 ) ) ( <= ( + T10 137 )( + T8 70 ) ) )
(or ( <= ( + T8 176 )  ( + T10 137 ) ) ( <= ( + T10 161 )( + T8 160 ) ) )
(or ( <= ( + T8 203 )  ( + T10 161 ) ) ( <= ( + T10 165 )( + T8 176 ) ) )
(or ( <= ( + T8 259 )  ( + T10 165 ) ) ( <= ( + T10 247 )( + T8 203 ) ) )
(or ( <= ( + T8 266 )  ( + T10 247 ) ) ( <= ( + T10 295 )( + T8 259 ) ) )
(or ( <= ( + T8 335 )  ( + T10 295 ) ) ( <= ( + T10 362 )( + T8 266 ) ) )
(or ( <= ( + T8 348 )  ( + T10 362 ) ) ( <= ( + T10 413 )( + T8 335 ) ) )
(or ( <= ( + T8 422 )  ( + T10 413 ) ) ( <= ( + T10 502 )( + T8 348 ) ) )
(or ( <= ( + T8 452 )  ( + T10 502 ) ) ( <= ( + T10 585 )( + T8 422 ) ) )
(or ( <= ( + T8 462 )  ( + T10 585 ) ) ( <= ( + T10 614 )( + T8 452 ) ) )
(or ( <= ( + T8 471 )  ( + T10 614 ) ) ( <= ( + T10 710 )( + T8 462 ) ) )
(or ( <= ( + T9 73 ) T10 ) ( <= ( + T10 41 ) T9 ) )
(or ( <= ( + T9 79 )  ( + T10 41 ) ) ( <= ( + T10 137 )( + T9 73 ) ) )
(or ( <= ( + T9 115 )  ( + T10 137 ) ) ( <= ( + T10 161 )( + T9 79 ) ) )
(or ( <= ( + T9 136 )  ( + T10 161 ) ) ( <= ( + T10 165 )( + T9 115 ) ) )
(or ( <= ( + T9 211 )  ( + T10 165 ) ) ( <= ( + T10 247 )( + T9 136 ) ) )
(or ( <= ( + T9 269 )  ( + T10 247 ) ) ( <= ( + T10 295 )( + T9 211 ) ) )
(or ( <= ( + T9 306 )  ( + T10 295 ) ) ( <= ( + T10 362 )( + T9 269 ) ) )
(or ( <= ( + T9 387 )  ( + T10 362 ) ) ( <= ( + T10 413 )( + T9 306 ) ) )
(or ( <= ( + T9 422 )  ( + T10 413 ) ) ( <= ( + T10 502 )( + T9 387 ) ) )
(or ( <= ( + T9 522 )  ( + T10 502 ) ) ( <= ( + T10 585 )( + T9 422 ) ) )
(or ( <= ( + T9 590 )  ( + T10 585 ) ) ( <= ( + T10 614 )( + T9 522 ) ) )
(or ( <= ( + T9 665 )  ( + T10 614 ) ) ( <= ( + T10 710 )( + T9 590 ) ) )
( <= ( + T1 666 ) Z)
( <= ( + T2 527 ) Z)
( <= ( + T3 672 ) Z)
( <= ( + T4 631 ) Z)
( <= ( + T5 576 ) Z)
( <= ( + T6 579 ) Z)
( <= ( + T7 629 ) Z)
( <= ( + T8 471 ) Z)
( <= ( + T9 665 ) Z)
( <= ( + T10 710 ) Z)
( >= T1 0 )
( >= T2 0 )
( >= T3 0 )
( >= T4 0 )
( >= T5 0 )
( >= T6 0 )
( >= T7 0 )
( >= T8 0 )
( >= T9 0 )
( >= T10 0 )
) )
(minimize Z)
(check-sat)